param n := 2;

param m := 2;

param K := 500;

param a :=
1 	 0.750022
2 	 0.858314
;
 param A :=
[1, *, *]:  1	2	:=
1	0.510164	0.728959	
2	0.396114	-0.354638	

[2, *, *]:  1	2	:=
1	0.341578	-0.235794	
2	-0.098252	-0.178377	
;